QPLIB_3706
QBB
maximize
703 # number of variables
1368 # number of quadratic terms in objective
2 1 4.0
97 1 -4.0
338 1 -4.0
339 1 4.0
336 2 -4.0
357 2 -4.0
639 2 4.0
4 3 4.0
103 3 -4.0
334 3 -4.0
424 3 4.0
104 4 -4.0
375 4 -4.0
624 4 4.0
51 5 4.0
324 5 -4.0
533 5 4.0
568 5 -4.0
133 6 -4.0
444 6 -4.0
446 6 4.0
478 6 4.0
8 7 4.0
400 7 -4.0
401 7 4.0
453 7 -4.0
116 8 -4.0
352 8 -4.0
581 8 4.0
17 9 4.0
270 9 -4.0
605 9 -4.0
649 9 4.0
415 10 -4.0
417 10 4.0
508 10 4.0
510 10 -4.0
112 11 -4.0
317 11 4.0
419 11 4.0
448 11 -4.0
51 12 -4.0
271 12 -4.0
499 12 4.0
700 12 4.0
305 13 4.0
349 13 -4.0
395 13 4.0
480 13 -4.0
15 14 4.0
141 14 -4.0
456 14 -4.0
680 14 4.0
117 15 4.0
274 15 -4.0
278 15 -4.0
272 16 -4.0
324 16 -4.0
535 16 4.0
651 16 4.0
272 17 -4.0
474 17 4.0
538 17 -4.0
298 18 4.0
370 18 4.0
372 18 -4.0
511 18 -4.0
331 19 4.0
451 19 4.0
515 19 -4.0
670 19 -4.0
21 20 4.0
22 20 -4.0
118 20 4.0
150 20 -4.0
105 21 4.0
273 21 -4.0
276 21 -4.0
140 22 4.0
276 22 -4.0
488 22 4.0
24 23 4.0
78 23 -4.0
428 23 4.0
525 23 -4.0
85 24 -4.0
118 24 -4.0
119 24 4.0
166 25 4.0
204 25 4.0
648 25 -4.0
698 25 -4.0
27 26 4.0
271 26 -4.0
440 26 4.0
572 26 -4.0
698 27 4.0
699 27 -4.0
702 27 -4.0
346 28 4.0
391 28 -4.0
539 28 -4.0
612 28 4.0
30 29 -4.0
575 29 4.0
612 29 4.0
615 29 -4.0
40 30 -4.0
574 30 4.0
611 30 4.0
32 31 -4.0
350 31 4.0
423 31 4.0
483 31 -4.0
199 32 4.0
305 32 -4.0
619 32 4.0
34 33 4.0
35 33 -4.0
106 33 4.0
556 33 -4.0
61 34 -4.0
275 34 -4.0
555 34 4.0
149 35 4.0
278 35 -4.0
523 35 4.0
37 36 4.0
380 36 -4.0
462 36 4.0
489 36 -4.0
94 37 -4.0
106 37 -4.0
593 37 4.0
39 38 4.0
272 38 -4.0
411 38 4.0
607 38 -4.0
649 39 4.0
650 39 -4.0
653 39 -4.0
41 40 -4.0
366 40 4.0
656 40 4.0
213 41 4.0
43 42 -4.0
542 42 4.0
656 42 4.0
659 42 -4.0
52 43 -4.0
132 43 4.0
541 43 4.0
114 44 4.0
318 44 -4.0
373 44 4.0
518 44 -4.0
46 45 4.0
379 45 -4.0
586 45 4.0
676 45 -4.0
307 46 -4.0
424 46 -4.0
486 46 4.0
48 47 -4.0
95 47 4.0
524 47 -4.0
586 47 4.0
157 48 4.0
281 48 -4.0
554 48 4.0
356 49 -4.0
460 49 -4.0
491 49 4.0
633 49 4.0
462 50 -4.0
464 50 4.0
491 50 4.0
493 50 -4.0
166 51 -4.0
182 51 4.0
53 52 4.0
330 52 -4.0
389 52 4.0
284 53 -4.0
415 53 -4.0
508 53 4.0
65 54 -4.0
144 54 4.0
508 54 -4.0
509 54 4.0
56 55 -4.0
57 55 4.0
205 55 4.0
348 55 -4.0
316 56 -4.0
392 56 4.0
660 56 4.0
176 57 -4.0
508 57 4.0
509 57 -4.0
59 58 4.0
373 58 -4.0
397 58 4.0
618 58 -4.0
205 59 -4.0
267 59 4.0
577 59 -4.0
102 60 4.0
332 60 -4.0
397 60 4.0
546 60 -4.0
62 61 4.0
75 61 4.0
377 61 -4.0
300 62 -4.0
401 62 -4.0
521 62 4.0
337 63 -4.0
427 63 -4.0
527 63 4.0
682 63 4.0
129 64 4.0
428 64 -4.0
527 64 4.0
529 64 -4.0
66 65 4.0
347 65 -4.0
413 65 4.0
280 66 -4.0
444 66 -4.0
478 66 4.0
280 67 -4.0
478 67 -4.0
479 67 4.0
506 67 4.0
69 68 4.0
196 68 4.0
542 68 -4.0
617 68 -4.0
187 69 -4.0
478 69 4.0
479 69 -4.0
71 70 4.0
350 70 -4.0
421 70 4.0
664 70 -4.0
196 71 -4.0
262 71 4.0
544 71 -4.0
92 72 4.0
351 72 -4.0
421 72 4.0
580 72 -4.0
273 73 4.0
293 73 -4.0
376 73 -4.0
552 73 4.0
218 74 4.0
225 74 4.0
273 74 -4.0
335 74 -4.0
273 75 -4.0
631 75 4.0
679 75 -4.0
127 76 4.0
308 76 4.0
525 76 -4.0
631 76 -4.0
78 77 -4.0
120 77 4.0
560 77 4.0
563 77 -4.0
191 78 4.0
404 78 4.0
284 79 -4.0
444 79 -4.0
445 79 4.0
477 79 4.0
81 80 4.0
186 80 4.0
575 80 -4.0
662 80 -4.0
197 81 -4.0
444 81 4.0
445 81 -4.0
374 82 -4.0
450 82 4.0
517 82 4.0
623 82 -4.0
163 83 4.0
334 83 -4.0
517 83 4.0
670 83 -4.0
125 84 -4.0
252 84 4.0
274 84 4.0
353 84 -4.0
117 85 4.0
589 85 -4.0
682 85 4.0
109 86 4.0
380 86 -4.0
594 86 4.0
597 86 -4.0
286 87 -4.0
415 87 -4.0
416 87 4.0
443 87 4.0
89 88 4.0
175 88 4.0
370 88 -4.0
615 88 -4.0
206 89 -4.0
415 89 4.0
416 89 -4.0
91 90 4.0
92 90 -4.0
155 90 4.0
452 90 -4.0
199 91 -4.0
208 91 4.0
668 91 -4.0
177 92 -4.0
581 92 4.0
115 93 -4.0
257 93 4.0
275 93 4.0
335 93 -4.0
105 94 4.0
555 94 -4.0
633 94 4.0
460 95 -4.0
523 95 4.0
633 95 -4.0
356 96 -4.0
562 96 4.0
637 96 4.0
640 96 -4.0
130 97 4.0
495 97 -4.0
562 97 4.0
99 98 4.0
468 98 -4.0
603 98 4.0
650 98 -4.0
234 99 4.0
384 99 -4.0
532 99 -4.0
393 100 4.0
395 100 -4.0
447 100 4.0
659 100 -4.0
102 101 -4.0
147 101 4.0
484 101 -4.0
579 101 4.0
171 102 -4.0
624 102 4.0
104 103 4.0
551 103 4.0
676 103 -4.0
147 104 -4.0
231 104 4.0
236 105 -4.0
522 105 -4.0
427 106 -4.0
554 106 4.0
337 107 -4.0
596 107 4.0
686 107 4.0
689 107 -4.0
109 108 -4.0
121 108 4.0
358 108 -4.0
596 108 4.0
381 109 -4.0
641 109 4.0
111 110 4.0
434 110 -4.0
570 110 4.0
699 110 -4.0
228 111 4.0
360 111 -4.0
497 111 -4.0
124 112 4.0
332 112 -4.0
420 112 4.0
114 113 -4.0
137 113 4.0
519 113 -4.0
622 113 4.0
398 114 -4.0
671 114 4.0
116 115 4.0
549 115 -4.0
585 115 4.0
137 116 -4.0
224 116 4.0
241 117 -4.0
487 117 -4.0
403 118 -4.0
588 118 4.0
246 119 -4.0
336 119 4.0
558 119 -4.0
279 120 -4.0
404 120 -4.0
598 120 4.0
279 121 -4.0
311 121 4.0
322 121 -4.0
220 122 4.0
341 122 -4.0
467 122 -4.0
535 122 4.0
185 123 -4.0
223 123 4.0
446 123 4.0
574 123 -4.0
349 124 -4.0
545 124 4.0
578 124 -4.0
126 125 -4.0
628 125 4.0
673 125 4.0
163 126 -4.0
240 126 4.0
627 126 4.0
456 127 4.0
457 127 -4.0
459 127 -4.0
201 128 -4.0
254 128 -4.0
525 128 4.0
686 128 4.0
247 129 4.0
282 129 -4.0
429 129 -4.0
282 130 -4.0
302 130 4.0
340 130 -4.0
211 131 4.0
323 131 -4.0
432 131 -4.0
499 131 4.0
255 132 -4.0
266 132 4.0
573 132 -4.0
134 133 4.0
369 133 4.0
480 133 -4.0
195 134 -4.0
215 134 4.0
541 134 -4.0
317 135 4.0
372 135 -4.0
516 135 4.0
621 135 -4.0
171 136 4.0
306 136 4.0
399 136 -4.0
516 136 -4.0
138 137 4.0
306 137 -4.0
293 138 4.0
453 138 -4.0
625 138 -4.0
245 139 4.0
293 139 -4.0
452 139 -4.0
675 139 4.0
253 140 -4.0
676 140 4.0
677 140 -4.0
489 141 -4.0
634 141 4.0
678 141 4.0
285 142 4.0
339 142 -4.0
404 142 4.0
638 142 -4.0
203 143 4.0
312 143 -4.0
407 143 -4.0
470 143 4.0
261 144 4.0
539 144 -4.0
540 144 -4.0
206 145 4.0
316 145 -4.0
509 145 -4.0
510 145 4.0
169 146 -4.0
319 146 4.0
375 146 -4.0
398 146 4.0
148 147 4.0
319 147 -4.0
300 148 4.0
424 148 -4.0
582 148 -4.0
258 149 -4.0
628 149 4.0
629 149 -4.0
179 150 4.0
460 150 -4.0
591 150 4.0
287 151 4.0
321 151 -4.0
429 151 4.0
595 151 -4.0
159 152 -4.0
384 152 -4.0
435 152 4.0
697 152 4.0
167 153 4.0
288 153 -4.0
386 153 4.0
410 153 -4.0
162 154 -4.0
333 154 4.0
352 154 -4.0
422 154 4.0
156 155 4.0
333 155 -4.0
549 155 -4.0
307 156 4.0
401 156 -4.0
548 156 -4.0
264 157 -4.0
585 157 4.0
587 157 -4.0
289 158 4.0
310 158 -4.0
463 158 4.0
561 158 -4.0
160 159 4.0
161 159 4.0
290 159 -4.0
323 160 -4.0
405 160 4.0
465 160 -4.0
324 161 -4.0
360 161 -4.0
408 161 4.0
244 162 4.0
450 162 4.0
451 162 -4.0
164 163 4.0
352 163 -4.0
320 164 4.0
376 164 -4.0
519 164 -4.0
294 165 4.0
301 165 -4.0
492 165 4.0
528 165 -4.0
312 166 4.0
341 166 -4.0
296 167 -4.0
173 168 -4.0
267 168 4.0
418 168 4.0
575 168 -4.0
250 169 4.0
483 169 -4.0
667 169 4.0
335 170 4.0
353 170 -4.0
452 170 4.0
484 170 -4.0
373 171 4.0
374 171 -4.0
227 172 4.0
357 172 -4.0
462 172 4.0
634 172 -4.0
174 173 4.0
176 173 4.0
416 173 -4.0
230 174 4.0
368 174 -4.0
613 174 -4.0
176 175 4.0
481 175 -4.0
482 175 -4.0
511 176 -4.0
350 177 4.0
351 177 -4.0
669 177 4.0
240 178 -4.0
519 178 4.0
669 178 4.0
670 178 -4.0
487 179 4.0
524 179 -4.0
553 179 -4.0
337 180 -4.0
428 180 4.0
461 180 4.0
591 180 -4.0
182 181 -4.0
183 181 4.0
313 181 -4.0
325 181 4.0
220 182 4.0
385 182 -4.0
326 183 -4.0
328 183 4.0
344 183 -4.0
185 184 4.0
187 184 4.0
445 184 -4.0
616 184 -4.0
222 185 4.0
573 185 -4.0
187 186 4.0
188 186 -4.0
512 186 -4.0
480 187 -4.0
447 188 4.0
514 188 -4.0
576 188 4.0
331 189 4.0
332 189 -4.0
517 189 -4.0
622 189 4.0
245 190 -4.0
548 190 4.0
622 190 4.0
623 190 -4.0
356 191 -4.0
490 191 4.0
558 191 -4.0
203 192 4.0
326 192 4.0
342 192 -4.0
697 192 -4.0
228 193 4.0
326 193 -4.0
361 193 4.0
409 193 -4.0
195 194 4.0
197 194 4.0
479 194 -4.0
661 194 -4.0
214 195 4.0
540 195 -4.0
197 196 4.0
198 196 -4.0
448 197 -4.0
418 198 4.0
544 198 -4.0
619 198 4.0
318 199 -4.0
579 199 4.0
251 200 -4.0
579 200 4.0
580 200 -4.0
582 200 4.0
236 201 -4.0
309 201 4.0
524 201 4.0
599 202 4.0
688 202 4.0
689 202 -4.0
692 202 -4.0
648 203 -4.0
650 203 -4.0
234 204 4.0
342 204 -4.0
438 204 -4.0
206 205 4.0
207 205 -4.0
419 206 -4.0
394 207 4.0
577 207 -4.0
665 207 4.0
256 208 -4.0
546 208 -4.0
625 208 4.0
356 209 4.0
357 209 -4.0
562 209 -4.0
639 209 4.0
639 210 4.0
640 210 -4.0
642 210 4.0
643 210 -4.0
325 211 4.0
602 211 -4.0
603 211 -4.0
238 212 4.0
362 212 -4.0
408 212 4.0
472 212 -4.0
214 213 4.0
330 213 -4.0
507 213 -4.0
477 214 -4.0
479 214 -4.0
393 215 -4.0
395 215 -4.0
617 215 4.0
217 216 4.0
369 216 4.0
617 216 -4.0
620 216 -4.0
332 217 4.0
371 217 -4.0
374 217 -4.0
253 218 -4.0
673 218 4.0
674 218 -4.0
596 219 4.0
597 219 -4.0
600 219 -4.0
691 219 4.0
569 220 -4.0
570 220 -4.0
222 221 4.0
346 221 4.0
347 221 -4.0
540 221 -4.0
443 222 -4.0
445 222 -4.0
368 223 -4.0
370 223 -4.0
662 223 4.0
258 224 -4.0
354 224 4.0
626 224 -4.0
226 225 4.0
354 225 -4.0
426 225 -4.0
486 226 -4.0
523 226 -4.0
588 226 4.0
241 227 4.0
590 227 -4.0
592 227 -4.0
534 228 -4.0
536 228 -4.0
230 229 4.0
366 229 4.0
367 229 -4.0
573 229 -4.0
416 230 -4.0
654 230 -4.0
264 231 -4.0
378 231 4.0
583 231 -4.0
236 232 4.0
557 232 -4.0
635 232 -4.0
684 232 4.0
381 233 4.0
684 233 4.0
685 233 -4.0
687 233 -4.0
498 234 -4.0
500 234 -4.0
398 235 4.0
665 235 4.0
666 235 -4.0
668 235 -4.0
523 236 4.0
404 237 4.0
635 237 4.0
636 237 -4.0
638 237 -4.0
468 238 4.0
469 238 -4.0
471 238 -4.0
422 239 4.0
619 239 4.0
620 239 -4.0
621 239 -4.0
671 240 4.0
674 240 -4.0
488 241 4.0
490 241 -4.0
429 242 4.0
592 242 4.0
593 242 -4.0
595 242 -4.0
443 243 4.0
655 243 -4.0
576 244 4.0
577 244 -4.0
578 244 -4.0
624 245 4.0
626 245 -4.0
463 246 4.0
559 246 4.0
561 246 -4.0
248 247 4.0
464 247 -4.0
565 247 -4.0
466 248 4.0
531 248 -4.0
641 248 -4.0
477 249 4.0
611 249 -4.0
543 250 4.0
544 250 -4.0
545 250 -4.0
485 251 4.0
581 251 4.0
583 251 -4.0
253 252 4.0
487 252 -4.0
587 252 -4.0
675 253 4.0
492 254 4.0
526 254 4.0
528 254 -4.0
506 255 4.0
520 256 4.0
547 256 4.0
550 256 -4.0
258 257 4.0
522 257 -4.0
629 257 -4.0
627 258 4.0
260 259 4.0
538 259 -4.0
269 260 -4.0
701 260 4.0
702 260 -4.0
655 261 -4.0
660 262 4.0
661 262 -4.0
664 262 -4.0
264 263 4.0
551 263 4.0
553 263 -4.0
677 263 -4.0
584 264 4.0
572 265 -4.0
703 265 4.0
611 266 -4.0
616 267 -4.0
618 267 -4.0
602 268 4.0
693 268 4.0
694 268 -4.0
696 268 -4.0
703 269 4.0
272 270 -4.0
408 270 4.0
436 270 -4.0
605 271 -4.0
698 271 4.0
354 274 -4.0
586 274 -4.0
378 275 -4.0
456 275 -4.0
402 276 -4.0
551 276 4.0
488 277 4.0
489 277 -4.0
679 277 -4.0
682 277 -4.0
425 278 -4.0
585 278 4.0
382 279 -4.0
639 279 4.0
367 280 -4.0
442 280 4.0
454 281 -4.0
456 281 -4.0
628 281 4.0
405 282 -4.0
688 282 4.0
291 283 -4.0
608 283 -4.0
390 284 -4.0
476 284 4.0
358 285 -4.0
430 285 -4.0
464 285 -4.0
414 286 -4.0
505 286 4.0
656 286 -4.0
382 287 -4.0
465 287 -4.0
493 287 -4.0
303 288 -4.0
405 289 -4.0
494 289 -4.0
529 289 -4.0
341 290 -4.0
382 290 4.0
494 290 -4.0
292 291 -4.0
363 291 4.0
439 291 -4.0
314 292 -4.0
676 293 -4.0
430 294 -4.0
530 294 -4.0
563 294 -4.0
312 295 -4.0
358 295 4.0
360 295 -4.0
530 295 -4.0
297 296 -4.0
343 296 4.0
473 296 -4.0
328 297 -4.0
331 298 -4.0
450 298 4.0
512 298 4.0
334 299 -4.0
423 299 -4.0
548 299 -4.0
669 299 4.0
485 300 -4.0
628 300 -4.0
465 301 -4.0
564 301 -4.0
597 301 -4.0
323 302 -4.0
384 302 -4.0
564 302 -4.0
304 303 -4.0
327 303 4.0
502 303 -4.0
344 304 -4.0
482 305 4.0
667 305 4.0
451 306 -4.0
582 306 -4.0
520 307 -4.0
585 307 -4.0
309 308 -4.0
355 308 -4.0
459 308 -4.0
336 309 -4.0
380 309 -4.0
494 310 -4.0
599 310 -4.0
640 310 -4.0
341 311 -4.0
407 311 -4.0
599 311 -4.0
644 312 -4.0
314 313 4.0
342 313 -4.0
364 313 -4.0
315 314 -4.0
701 314 -4.0
364 315 -4.0
391 316 -4.0
507 316 4.0
318 317 -4.0
449 317 4.0
665 318 4.0
483 319 -4.0
625 319 -4.0
377 320 -4.0
550 320 -4.0
551 320 -4.0
530 321 -4.0
642 321 -4.0
689 321 -4.0
360 322 -4.0
432 322 -4.0
642 322 -4.0
433 323 -4.0
325 324 4.0
362 325 -4.0
327 326 -4.0
362 327 -4.0
387 327 -4.0
329 328 -4.0
652 328 -4.0
387 329 -4.0
576 331 4.0
518 333 -4.0
672 333 -4.0
673 334 4.0
583 335 -4.0
338 336 -4.0
338 337 -4.0
596 338 -4.0
564 339 -4.0
691 339 -4.0
384 340 -4.0
467 340 -4.0
691 340 -4.0
343 342 -4.0
385 343 -4.0
411 343 -4.0
345 344 -4.0
606 344 -4.0
411 345 -4.0
481 348 -4.0
510 348 -4.0
663 348 4.0
351 349 -4.0
396 349 4.0
543 350 4.0
513 351 -4.0
546 352 -4.0
354 353 -4.0
626 353 -4.0
357 355 -4.0
403 355 -4.0
560 355 4.0
359 358 -4.0
407 359 -4.0
497 359 -4.0
692 359 4.0
433 361 -4.0
649 361 -4.0
696 361 -4.0
363 362 -4.0
409 363 -4.0
440 363 -4.0
365 364 -4.0
653 364 -4.0
440 365 -4.0
417 368 4.0
614 368 -4.0
371 369 -4.0
661 369 4.0
371 370 -4.0
372 371 4.0
374 372 -4.0
514 373 4.0
452 375 -4.0
580 375 -4.0
378 376 -4.0
674 376 -4.0
453 377 -4.0
455 377 4.0
455 378 -4.0
455 379 -4.0
458 379 -4.0
554 379 -4.0
381 380 4.0
688 381 4.0
383 382 -4.0
432 383 -4.0
532 383 -4.0
643 383 4.0
386 385 -4.0
437 385 -4.0
438 386 -4.0
474 386 -4.0
388 387 -4.0
702 387 -4.0
474 388 -4.0
610 389 4.0
610 390 -4.0
392 391 -4.0
610 391 -4.0
393 392 -4.0
657 392 -4.0
658 393 -4.0
396 394 -4.0
446 394 4.0
616 394 4.0
396 395 -4.0
665 396 -4.0
398 397 4.0
544 397 4.0
400 399 -4.0
484 399 -4.0
623 399 -4.0
549 400 -4.0
671 400 4.0
402 401 -4.0
486 402 -4.0
584 402 4.0
524 403 -4.0
635 403 4.0
406 405 -4.0
467 406 -4.0
567 406 -4.0
600 406 4.0
468 407 -4.0
602 408 -4.0
410 409 -4.0
471 409 -4.0
472 410 -4.0
503 410 -4.0
412 411 -4.0
503 412 -4.0
654 413 4.0
654 414 -4.0
418 417 4.0
419 417 -4.0
420 418 -4.0
420 419 -4.0
619 420 -4.0
422 421 4.0
577 421 4.0
423 422 -4.0
671 423 -4.0
425 424 -4.0
521 425 -4.0
627 425 4.0
488 426 -4.0
521 426 -4.0
630 426 4.0
556 427 -4.0
592 427 4.0
429 428 4.0
431 430 -4.0
644 430 -4.0
497 431 -4.0
565 431 4.0
601 431 -4.0
434 432 -4.0
436 433 -4.0
647 433 -4.0
436 434 -4.0
601 434 -4.0
437 435 4.0
569 435 -4.0
698 435 4.0
437 436 -4.0
501 437 -4.0
439 438 -4.0
500 438 -4.0
501 439 -4.0
538 439 -4.0
441 440 -4.0
538 441 -4.0
443 442 4.0
448 446 -4.0
449 447 -4.0
660 447 4.0
449 448 -4.0
576 449 -4.0
620 450 4.0
624 451 -4.0
454 453 -4.0
552 454 -4.0
675 454 4.0
457 455 -4.0
552 457 -4.0
678 457 4.0
459 458 -4.0
522 458 4.0
556 458 -4.0
461 459 -4.0
559 460 4.0
559 461 -4.0
632 461 -4.0
463 462 4.0
464 463 -4.0
466 465 -4.0
532 466 -4.0
646 466 -4.0
469 467 -4.0
567 468 -4.0
535 469 -4.0
646 469 -4.0
471 470 4.0
534 470 -4.0
649 470 4.0
537 471 -4.0
473 472 -4.0
536 472 -4.0
537 473 -4.0
572 473 -4.0
475 474 -4.0
572 475 -4.0
477 476 4.0
482 480 -4.0
513 481 -4.0
543 481 4.0
543 482 -4.0
581 483 -4.0
485 484 -4.0
675 485 -4.0
487 486 -4.0
526 489 4.0
526 490 -4.0
681 490 -4.0
492 491 4.0
684 491 4.0
493 492 -4.0
598 493 -4.0
496 494 -4.0
496 495 -4.0
598 495 -4.0
644 495 -4.0
567 496 -4.0
695 496 -4.0
498 497 -4.0
499 498 -4.0
695 498 -4.0
500 499 4.0
571 500 -4.0
502 501 -4.0
570 501 -4.0
571 502 -4.0
607 502 -4.0
504 503 -4.0
605 503 4.0
607 504 -4.0
506 505 4.0
507 506 -4.0
509 507 -4.0
511 510 -4.0
512 511 -4.0
514 512 -4.0
515 513 -4.0
663 513 -4.0
515 514 -4.0
516 515 -4.0
518 516 -4.0
547 517 4.0
547 518 -4.0
520 519 -4.0
627 520 -4.0
522 521 -4.0
680 525 -4.0
637 526 4.0
528 527 4.0
635 527 4.0
529 528 -4.0
641 529 -4.0
531 530 -4.0
533 531 -4.0
601 531 -4.0
534 532 -4.0
534 533 -4.0
645 533 -4.0
536 535 4.0
604 536 -4.0
603 537 -4.0
701 537 -4.0
541 540 -4.0
542 541 -4.0
660 542 -4.0
546 545 -4.0
669 545 -4.0
672 547 4.0
550 548 -4.0
584 549 4.0
584 550 -4.0
553 552 -4.0
555 553 -4.0
557 554 4.0
557 555 -4.0
558 556 4.0
558 557 -4.0
594 559 4.0
561 560 4.0
592 560 4.0
563 561 -4.0
690 562 4.0
690 563 -4.0
566 564 -4.0
566 565 -4.0
690 565 -4.0
568 566 -4.0
646 566 -4.0
569 567 -4.0
569 568 -4.0
694 568 -4.0
651 570 -4.0
650 571 -4.0
652 571 -4.0
574 573 -4.0
575 574 -4.0
580 578 -4.0
622 578 -4.0
621 579 -4.0
583 582 -4.0
589 586 4.0
589 587 -4.0
678 587 -4.0
590 588 4.0
677 588 -4.0
590 589 -4.0
591 590 -4.0
593 591 -4.0
686 593 -4.0
595 594 4.0
685 594 -4.0
597 595 -4.0
600 598 -4.0
693 599 -4.0
693 600 -4.0
602 601 -4.0
700 603 -4.0
606 604 -4.0
699 604 -4.0
701 604 -4.0
608 605 -4.0
608 606 -4.0
700 606 -4.0
609 607 -4.0
609 608 -4.0
613 610 -4.0
613 611 -4.0
614 612 4.0
655 612 4.0
614 613 -4.0
615 614 -4.0
616 615 -4.0
618 617 -4.0
620 618 -4.0
623 621 -4.0
626 625 -4.0
630 629 -4.0
631 629 -4.0
632 630 4.0
680 630 4.0
632 631 -4.0
634 632 -4.0
636 633 4.0
636 634 -4.0
637 636 -4.0
638 637 4.0
640 638 -4.0
643 641 -4.0
645 642 -4.0
645 643 -4.0
647 644 -4.0
647 645 -4.0
648 646 -4.0
648 647 -4.0
652 651 -4.0
653 651 -4.0
703 652 4.0
703 653 -4.0
657 654 -4.0
657 655 -4.0
658 656 4.0
658 657 -4.0
659 658 -4.0
661 659 -4.0
663 662 -4.0
664 662 -4.0
666 663 -4.0
666 664 -4.0
667 666 4.0
668 667 -4.0
670 668 -4.0
673 672 -4.0
674 672 -4.0
679 677 -4.0
681 678 4.0
681 679 -4.0
683 680 4.0
683 681 -4.0
685 682 4.0
684 683 -4.0
685 683 -4.0
687 686 4.0
688 687 -4.0
689 687 -4.0
692 690 -4.0
694 691 -4.0
694 692 -4.0
695 693 -4.0
696 695 -4.0
697 696 -4.0
699 697 -4.0
702 700 -4.0
0.0 # default value for linear coefficients in objective
434 # number of non-default linear coefficients in objective
270 2.0
271 2.0
272 4.0
273 2.0
274 2.0
275 2.0
276 2.0
277 2.0
278 2.0
279 2.0
280 2.0
281 2.0
282 2.0
283 2.0
284 2.0
285 2.0
286 2.0
287 2.0
288 2.0
289 2.0
290 2.0
291 2.0
292 2.0
293 2.0
294 2.0
295 2.0
296 2.0
297 2.0
298 -2.0
299 2.0
300 2.0
301 4.0
302 2.0
303 2.0
304 2.0
305 -2.0
306 2.0
307 2.0
308 2.0
309 2.0
310 4.0
311 2.0
312 2.0
313 2.0
314 2.0
315 2.0
316 2.0
317 -2.0
318 2.0
319 2.0
320 2.0
321 4.0
322 4.0
323 4.0
324 2.0
325 -2.0
326 2.0
327 2.0
328 2.0
329 2.0
330 2.0
331 -2.0
332 2.0
333 2.0
334 2.0
335 2.0
336 2.0
337 4.0
338 4.0
339 2.0
340 4.0
341 4.0
342 4.0
343 2.0
344 4.0
345 2.0
346 -2.0
347 2.0
348 2.0
349 2.0
350 -2.0
351 4.0
352 4.0
353 4.0
354 2.0
355 2.0
356 2.0
357 4.0
358 2.0
359 2.0
360 4.0
361 2.0
362 4.0
363 2.0
364 4.0
365 2.0
366 -2.0
367 2.0
368 2.0
369 -2.0
370 2.0
371 2.0
372 2.0
373 -2.0
374 4.0
375 4.0
376 4.0
377 2.0
378 2.0
379 4.0
380 2.0
381 -2.0
382 2.0
383 2.0
384 4.0
385 4.0
386 2.0
387 4.0
388 2.0
389 -2.0
390 2.0
391 4.0
392 2.0
393 2.0
394 -2.0
395 2.0
396 2.0
397 -4.0
398 -2.0
399 4.0
400 2.0
401 2.0
402 2.0
403 2.0
404 -2.0
405 2.0
406 2.0
407 4.0
408 -2.0
409 4.0
410 4.0
411 2.0
412 2.0
413 -2.0
414 2.0
415 2.0
416 2.0
417 -2.0
418 -2.0
419 2.0
420 2.0
421 -4.0
422 -2.0
423 2.0
424 2.0
425 2.0
426 2.0
427 2.0
428 -2.0
429 -2.0
430 4.0
431 2.0
432 4.0
433 4.0
434 4.0
435 -2.0
436 4.0
437 2.0
438 4.0
439 4.0
440 2.0
441 2.0
442 -2.0
443 -2.0
444 2.0
445 2.0
446 -2.0
447 -2.0
448 4.0
449 2.0
450 -4.0
451 2.0
452 2.0
453 4.0
454 2.0
455 2.0
456 2.0
457 2.0
458 2.0
459 4.0
460 2.0
461 2.0
462 -2.0
463 -2.0
464 2.0
465 4.0
466 2.0
467 4.0
468 2.0
469 4.0
470 -2.0
471 2.0
472 4.0
473 4.0
474 2.0
475 2.0
476 -2.0
477 -2.0
478 -2.0
479 2.0
480 4.0
481 2.0
482 2.0
483 4.0
484 4.0
485 2.0
486 2.0
487 2.0
488 -2.0
489 2.0
490 2.0
491 -4.0
492 -2.0
493 4.0
494 4.0
495 4.0
496 4.0
497 4.0
498 4.0
499 -2.0
500 2.0
501 4.0
502 4.0
503 2.0
504 2.0
505 -2.0
506 -2.0
507 2.0
508 -2.0
509 2.0
510 2.0
511 4.0
512 2.0
513 4.0
514 2.0
515 4.0
516 2.0
517 -2.0
518 4.0
519 2.0
520 2.0
521 2.0
522 2.0
523 -2.0
524 2.0
525 2.0
526 -2.0
527 -4.0
528 2.0
529 4.0
530 4.0
531 4.0
532 4.0
533 2.0
534 4.0
535 -2.0
536 2.0
537 4.0
538 4.0
539 2.0
540 4.0
541 2.0
542 2.0
543 -2.0
544 2.0
545 2.0
546 4.0
547 -2.0
548 2.0
549 2.0
550 4.0
551 -2.0
552 2.0
553 4.0
554 -2.0
555 2.0
556 2.0
557 2.0
558 2.0
559 -2.0
560 -4.0
561 2.0
562 -2.0
563 4.0
564 4.0
565 2.0
566 4.0
567 4.0
568 4.0
569 4.0
570 2.0
571 4.0
572 4.0
573 4.0
574 2.0
575 2.0
576 -2.0
577 2.0
578 4.0
579 -2.0
580 4.0
581 -2.0
582 2.0
583 4.0
584 -2.0
585 -2.0
586 -2.0
587 4.0
588 -2.0
589 2.0
590 2.0
591 2.0
592 -2.0
593 2.0
594 -2.0
595 2.0
596 -2.0
597 4.0
598 2.0
599 2.0
600 2.0
601 4.0
602 2.0
603 2.0
604 4.0
605 2.0
606 4.0
607 4.0
608 4.0
609 2.0
610 2.0
611 2.0
612 -4.0
613 4.0
614 2.0
615 4.0
616 2.0
617 2.0
618 4.0
619 -2.0
620 2.0
621 4.0
622 -2.0
623 4.0
624 -2.0
625 2.0
626 4.0
627 -2.0
628 -2.0
629 4.0
630 -2.0
631 2.0
632 2.0
633 -2.0
634 2.0
635 -2.0
636 2.0
637 -2.0
638 2.0
639 -4.0
640 4.0
641 2.0
642 2.0
643 2.0
644 4.0
645 4.0
646 4.0
647 4.0
648 4.0
649 -2.0
650 4.0
651 2.0
652 2.0
653 4.0
654 2.0
655 2.0
656 -2.0
657 4.0
658 2.0
659 4.0
660 -2.0
661 2.0
662 2.0
663 2.0
664 4.0
665 -2.0
666 2.0
667 -2.0
668 4.0
669 -2.0
670 4.0
671 -2.0
672 2.0
673 -2.0
674 4.0
675 -2.0
676 2.0
677 4.0
678 -2.0
679 4.0
680 -2.0
681 2.0
682 -2.0
683 2.0
684 -2.0
685 2.0
686 -2.0
687 2.0
688 -2.0
689 4.0
690 2.0
691 2.0
692 2.0
693 2.0
694 4.0
695 4.0
696 4.0
697 2.0
698 -2.0
699 4.0
700 2.0
701 2.0
702 4.0
703 -2.0
0.0 # objective constant
1.79769313486232E+308 # value for infinity
0.0 # default variable primal value in starting point
0 # number of non-default variable primal values in starting point
0.0 # default variable bound dual value in starting point
0 # number of non-default variable bound dual values in starting point
0 # number of non-default variable names
0 # number of non-default constraint names
